c THIS FORMULA IS GENERATED BY CNF
c 
c atomics
c X_PI <= 48.12_2_s:1
c C_3_1:2
c X_PI <= 42.09_4_p:3
c X_GS <= 37.89_1_s:4
c X_GS <= 37.89_2_n:5
c X_PI <= 48.12_4_n:6
c X_PI <= 48.12_1_p:7
c X_GS <= 37.89_4_p:8
c X_GS <= 37.89_4_s:9
c X_PI <= 48.12_1_n:10
c C_4_1:11
c X_PI <= 42.09_1_n:12
c X_PI <= 42.09_3_s:13
c X_PI <= 42.09_2_s:14
c X_PI <= 48.12_1_s:15
c X_PI <= 42.09_1_s:16
c X_PI <= 42.09_4_s:17
c X_GS <= 37.89_4_n:18
c X_GS <= 37.89_1_n:19
c X_PI <= 48.12_2_n:20
c C_4_2:21
c X_GS <= 37.89_2_s:22
c X_GS <= 37.89_2_p:23
c C_2_1:24
c X_PI <= 42.09_3_n:25
c X_PI <= 42.09_4_n:26
c X_PI <= 42.09_2_n:27
c C_1_2:28
c X_GS <= 37.89_3_p:29
c C_3_2:30
c C_2_2:31
c X_GS <= 37.89_1_p:32
c X_PI <= 48.12_2_p:33
c X_PI <= 42.09_2_p:34
c X_PI <= 48.12_4_s:35
c X_PI <= 48.12_3_s:36
c X_PI <= 48.12_3_p:37
c X_GS <= 37.89_3_n:38
c X_PI <= 42.09_1_p:39
c X_PI <= 48.12_4_p:40
c X_PI <= 42.09_3_p:41
c X_PI <= 48.12_3_n:42
c C_1_1:43
c X_GS <= 37.89_3_s:44
c end atomics
p cnf 44 357
39 -39 -39 0
39 -39 -12 0
39 -39 16 0
39 12 -39 0
39 12 -12 0
39 12 16 0
39 -16 -39 0
39 -16 -12 0
39 -16 16 0
-12 -39 -39 0
-12 -39 -12 0
-12 -39 16 0
-12 12 -39 0
-12 12 -12 0
-12 12 16 0
-12 -16 -39 0
-12 -16 -12 0
-12 -16 16 0
-16 -39 -39 0
-16 -39 -12 0
-16 -39 16 0
-16 12 -39 0
-16 12 -12 0
-16 12 16 0
-16 -16 -39 0
-16 -16 -12 0
-16 -16 16 0
7 -7 -7 0
7 -7 -10 0
7 -7 15 0
7 10 -7 0
7 10 -10 0
7 10 15 0
7 -15 -7 0
7 -15 -10 0
7 -15 15 0
-10 -7 -7 0
-10 -7 -10 0
-10 -7 15 0
-10 10 -7 0
-10 10 -10 0
-10 10 15 0
-10 -15 -7 0
-10 -15 -10 0
-10 -15 15 0
-15 -7 -7 0
-15 -7 -10 0
-15 -7 15 0
-15 10 -7 0
-15 10 -10 0
-15 10 15 0
-15 -15 -7 0
-15 -15 -10 0
-15 -15 15 0
32 -32 -32 0
32 -32 -19 0
32 -32 4 0
32 19 -32 0
32 19 -19 0
32 19 4 0
32 -4 -32 0
32 -4 -19 0
32 -4 4 0
-19 -32 -32 0
-19 -32 -19 0
-19 -32 4 0
-19 19 -32 0
-19 19 -19 0
-19 19 4 0
-19 -4 -32 0
-19 -4 -19 0
-19 -4 4 0
-4 -32 -32 0
-4 -32 -19 0
-4 -32 4 0
-4 19 -32 0
-4 19 -19 0
-4 19 4 0
-4 -4 -32 0
-4 -4 -19 0
-4 -4 4 0
34 -34 -34 0
34 -34 -27 0
34 -34 14 0
34 27 -34 0
34 27 -27 0
34 27 14 0
34 -14 -34 0
34 -14 -27 0
34 -14 14 0
-27 -34 -34 0
-27 -34 -27 0
-27 -34 14 0
-27 27 -34 0
-27 27 -27 0
-27 27 14 0
-27 -14 -34 0
-27 -14 -27 0
-27 -14 14 0
-14 -34 -34 0
-14 -34 -27 0
-14 -34 14 0
-14 27 -34 0
-14 27 -27 0
-14 27 14 0
-14 -14 -34 0
-14 -14 -27 0
-14 -14 14 0
33 -33 -33 0
33 -33 -20 0
33 -33 1 0
33 20 -33 0
33 20 -20 0
33 20 1 0
33 -1 -33 0
33 -1 -20 0
33 -1 1 0
-20 -33 -33 0
-20 -33 -20 0
-20 -33 1 0
-20 20 -33 0
-20 20 -20 0
-20 20 1 0
-20 -1 -33 0
-20 -1 -20 0
-20 -1 1 0
-1 -33 -33 0
-1 -33 -20 0
-1 -33 1 0
-1 20 -33 0
-1 20 -20 0
-1 20 1 0
-1 -1 -33 0
-1 -1 -20 0
-1 -1 1 0
23 -23 -23 0
23 -23 -5 0
23 -23 22 0
23 5 -23 0
23 5 -5 0
23 5 22 0
23 -22 -23 0
23 -22 -5 0
23 -22 22 0
-5 -23 -23 0
-5 -23 -5 0
-5 -23 22 0
-5 5 -23 0
-5 5 -5 0
-5 5 22 0
-5 -22 -23 0
-5 -22 -5 0
-5 -22 22 0
-22 -23 -23 0
-22 -23 -5 0
-22 -23 22 0
-22 5 -23 0
-22 5 -5 0
-22 5 22 0
-22 -22 -23 0
-22 -22 -5 0
-22 -22 22 0
41 -41 -41 0
41 -41 -25 0
41 -41 13 0
41 25 -41 0
41 25 -25 0
41 25 13 0
41 -13 -41 0
41 -13 -25 0
41 -13 13 0
-25 -41 -41 0
-25 -41 -25 0
-25 -41 13 0
-25 25 -41 0
-25 25 -25 0
-25 25 13 0
-25 -13 -41 0
-25 -13 -25 0
-25 -13 13 0
-13 -41 -41 0
-13 -41 -25 0
-13 -41 13 0
-13 25 -41 0
-13 25 -25 0
-13 25 13 0
-13 -13 -41 0
-13 -13 -25 0
-13 -13 13 0
37 -37 -37 0
37 -37 -42 0
37 -37 36 0
37 42 -37 0
37 42 -42 0
37 42 36 0
37 -36 -37 0
37 -36 -42 0
37 -36 36 0
-42 -37 -37 0
-42 -37 -42 0
-42 -37 36 0
-42 42 -37 0
-42 42 -42 0
-42 42 36 0
-42 -36 -37 0
-42 -36 -42 0
-42 -36 36 0
-36 -37 -37 0
-36 -37 -42 0
-36 -37 36 0
-36 42 -37 0
-36 42 -42 0
-36 42 36 0
-36 -36 -37 0
-36 -36 -42 0
-36 -36 36 0
29 -29 -29 0
29 -29 -38 0
29 -29 44 0
29 38 -29 0
29 38 -38 0
29 38 44 0
29 -44 -29 0
29 -44 -38 0
29 -44 44 0
-38 -29 -29 0
-38 -29 -38 0
-38 -29 44 0
-38 38 -29 0
-38 38 -38 0
-38 38 44 0
-38 -44 -29 0
-38 -44 -38 0
-38 -44 44 0
-44 -29 -29 0
-44 -29 -38 0
-44 -29 44 0
-44 38 -29 0
-44 38 -38 0
-44 38 44 0
-44 -44 -29 0
-44 -44 -38 0
-44 -44 44 0
3 -3 -3 0
3 -3 -26 0
3 -3 17 0
3 26 -3 0
3 26 -26 0
3 26 17 0
3 -17 -3 0
3 -17 -26 0
3 -17 17 0
-26 -3 -3 0
-26 -3 -26 0
-26 -3 17 0
-26 26 -3 0
-26 26 -26 0
-26 26 17 0
-26 -17 -3 0
-26 -17 -26 0
-26 -17 17 0
-17 -3 -3 0
-17 -3 -26 0
-17 -3 17 0
-17 26 -3 0
-17 26 -26 0
-17 26 17 0
-17 -17 -3 0
-17 -17 -26 0
-17 -17 17 0
40 -40 -40 0
40 -40 -6 0
40 -40 35 0
40 6 -40 0
40 6 -6 0
40 6 35 0
40 -35 -40 0
40 -35 -6 0
40 -35 35 0
-6 -40 -40 0
-6 -40 -6 0
-6 -40 35 0
-6 6 -40 0
-6 6 -6 0
-6 6 35 0
-6 -35 -40 0
-6 -35 -6 0
-6 -35 35 0
-35 -40 -40 0
-35 -40 -6 0
-35 -40 35 0
-35 6 -40 0
-35 6 -6 0
-35 6 35 0
-35 -35 -40 0
-35 -35 -6 0
-35 -35 35 0
8 -8 -8 0
8 -8 -18 0
8 -8 9 0
8 18 -8 0
8 18 -18 0
8 18 9 0
8 -9 -8 0
8 -9 -18 0
8 -9 9 0
-18 -8 -8 0
-18 -8 -18 0
-18 -8 9 0
-18 18 -8 0
-18 18 -18 0
-18 18 9 0
-18 -9 -8 0
-18 -9 -18 0
-18 -9 9 0
-9 -8 -8 0
-9 -8 -18 0
-9 -8 9 0
-9 18 -8 0
-9 18 -18 0
-9 18 9 0
-9 -9 -8 0
-9 -9 -18 0
-9 -9 9 0
-16 -15 -4 0
-14 -1 -22 0
-13 -36 -44 0
-17 -35 -9 0
39 7 19 0
34 33 5 0
41 37 38 0
3 40 18 0
-39 -43 0
-10 -43 0
-32 -43 0
-34 -24 0
-20 -24 0
-23 -24 0
-41 -2 0
-42 -2 0
-29 -2 0
-3 -11 0
-6 -11 0
-8 -11 0
-39 -28 0
-10 -28 0
-32 -28 0
-34 -31 0
-20 -31 0
-23 -31 0
-41 -30 0
-42 -30 0
-29 -30 0
-3 -21 0
-6 -21 0
-8 -21 0
43 24 2 11 0
28 31 30 21 0
